[runlim] version:		1.10
[runlim] time limit:		311040000 seconds
[runlim] real time limit:	600 seconds
[runlim] space limit:		14000 MB
[runlim] argv[0]:		python3
[runlim] argv[1]:		cp.py
[runlim] argv[2]:		scen03
[runlim] start:			Tue Jan 20 17:05:51 2026
[runlim] main pid:		130024
[runlim] sample:		10.0 time, 10.1 real, 1256.5 MB
Building CP model...
Solving CP Optimizer...
 ! --------------------------------------------------- CP Optimizer 22.1.1.0 --
 ! Minimization problem - 15940 variables, 413179 constraints
 ! Presolve      : 413581 extractables eliminated
 ! LogVerbosity         = Terse
 ! Initial process time : 3.17s (3.17s extraction + 0.01s propagation)
 !  . Log search space  : 15940.0 (before), 15940.0 (after)
 !  . Memory usage      : 63.4 MB (before), 63.4 MB (after)
 ! Using parallel search with 12 workers.
 ! ----------------------------------------------------------------------------
 !          Best Branches  Non-fixed    W       Branch decision
                        0      15940                 -
 + New bound is 0
                        0      15940    1            -
 + New bound is 1
 *            47      432  7.46s        6      (gap is 97.87%)
 *            46      814  7.54s        6      (gap is 97.83%)
 *            45     1246  8.62s        6      (gap is 97.78%)
 *            44     1505  8.67s       12      (gap is 97.73%)
 *            43     1907  8.72s       12      (gap is 97.67%)
 *            42     6637  11.21s       6      (gap is 97.62%)
 *            41     7077  12.22s       6      (gap is 97.56%)
 *            40     7483  12.29s       6      (gap is 97.50%)
[runlim] sample:		84.7 time, 20.1 real, 2425.9 MB
 *            39     7728  12.80s       6      (gap is 97.44%)
 *            38     8257  13.68s       6      (gap is 97.37%)
 *            37     8811  14.50s       6      (gap is 97.30%)
 *            36     9198  15.33s       6      (gap is 97.22%)
 *            35     7889  18.06s      10      (gap is 97.14%)
 *            34    13826  20.51s       3      (gap is 97.06%)
[runlim] sample:		151.4 time, 30.1 real, 2597.4 MB
 *            33    14273  22.55s       3      (gap is 96.97%)
 *            32    14786  24.41s       3      (gap is 96.88%)
 *            31    21963  25.98s       6      (gap is 96.77%)
 *            30    27466  28.98s      12      (gap is 96.67%)
 ! Time = 28.98s, Average fail depth = 1282, Memory usage = 1.8 GB
 ! Current bound is 1 (gap is 96.67%)
 !          Best Branches  Non-fixed    W       Branch decision
[runlim] sample:		209.4 time, 40.1 real, 2662.8 MB
 *            29    34278  33.92s       6      (gap is 96.55%)
 *            28    31088  36.56s       8      (gap is 96.43%)
 *            27    36570  39.89s      12      (gap is 96.30%)
 *            26    38560  41.96s       3      (gap is 96.15%)
[runlim] sample:		273.6 time, 50.1 real, 2771.3 MB
 *            25    41246  42.55s       2      (gap is 96.00%)
 *            24    47918  43.98s       6      (gap is 95.83%)
 *            21    46398  44.04s       9      (gap is 95.24%)
 *            20    49480  46.63s      12      (gap is 95.00%)
[runlim] sample:		335.4 time, 60.1 real, 2815.8 MB
 *            19    55179  54.80s       1      (gap is 94.74%)
[runlim] sample:		396.6 time, 70.1 real, 2848.5 MB
 *            18    69025  69.17s       3      (gap is 94.44%)
[runlim] sample:		458.8 time, 80.1 real, 2885.8 MB
[runlim] sample:		523.8 time, 90.1 real, 2918.2 MB
[runlim] sample:		586.3 time, 100.1 real, 2945.0 MB
 *            17     106k  98.67s       9      (gap is 94.12%)
[runlim] sample:		656.3 time, 110.1 real, 2998.9 MB
 *            16    97001  110.30s     10      (gap is 93.75%)
[runlim] sample:		726.8 time, 120.1 real, 3036.7 MB
[runlim] sample:		795.7 time, 130.1 real, 3059.9 MB
[runlim] sample:		862.3 time, 140.1 real, 3079.8 MB
[runlim] sample:		928.5 time, 150.1 real, 3112.3 MB
[runlim] sample:		994.6 time, 160.1 real, 3145.5 MB
[runlim] sample:		1051.1 time, 170.1 real, 3147.3 MB
 *            15     179k  163.98s      1      (gap is 93.33%)
[runlim] sample:		1108.8 time, 180.1 real, 3156.7 MB
[runlim] sample:		1167.1 time, 190.1 real, 3159.8 MB
[runlim] sample:		1228.2 time, 200.1 real, 3162.3 MB
[runlim] sample:		1293.0 time, 210.1 real, 3165.9 MB
[runlim] sample:		1361.5 time, 220.1 real, 3165.9 MB
 *            14     223k  218.46s      4      (gap is 92.86%)
[runlim] sample:		1435.2 time, 230.1 real, 3181.2 MB
[runlim] sample:		1498.7 time, 240.1 real, 3200.6 MB
[runlim] sample:		1571.0 time, 250.1 real, 3216.8 MB
[runlim] sample:		1628.8 time, 260.1 real, 3221.1 MB
[runlim] sample:		1694.2 time, 270.1 real, 3221.2 MB
[runlim] sample:		1758.0 time, 280.1 real, 3222.0 MB
[runlim] sample:		1824.6 time, 290.1 real, 3222.0 MB
[runlim] sample:		1898.8 time, 300.1 real, 3228.2 MB
[runlim] sample:		1963.6 time, 310.1 real, 3228.6 MB
[runlim] sample:		2031.4 time, 320.1 real, 3233.1 MB
[runlim] sample:		2102.7 time, 330.1 real, 3233.7 MB
[runlim] sample:		2170.8 time, 340.1 real, 3236.0 MB
[runlim] sample:		2246.1 time, 350.1 real, 3241.8 MB
[runlim] sample:		2313.6 time, 360.1 real, 3247.6 MB
[runlim] sample:		2384.6 time, 370.1 real, 3250.0 MB
[runlim] sample:		2451.7 time, 380.1 real, 3259.3 MB
[runlim] sample:		2524.1 time, 390.1 real, 3265.7 MB
[runlim] sample:		2597.2 time, 400.1 real, 3275.1 MB
[runlim] sample:		2676.5 time, 410.1 real, 3289.3 MB
[runlim] sample:		2743.7 time, 420.1 real, 3290.1 MB
[runlim] sample:		2810.1 time, 430.1 real, 3290.5 MB
[runlim] sample:		2883.6 time, 440.1 real, 3291.1 MB
[runlim] sample:		2953.9 time, 450.1 real, 3291.3 MB
[runlim] sample:		3026.4 time, 460.1 real, 3291.6 MB
[runlim] sample:		3095.9 time, 470.1 real, 3291.7 MB
[runlim] sample:		3168.0 time, 480.1 real, 3292.0 MB
[runlim] sample:		3233.2 time, 490.1 real, 3292.0 MB
[runlim] sample:		3308.7 time, 500.1 real, 3292.0 MB
[runlim] sample:		3381.9 time, 510.1 real, 3292.0 MB
[runlim] sample:		3459.9 time, 520.1 real, 3292.1 MB
[runlim] sample:		3535.0 time, 530.1 real, 3293.3 MB
              14     521k      15116    9   F     0 != x_364_498
 + New bound is 2 (gap is 85.71%)
[runlim] sample:		3603.2 time, 540.1 real, 3293.7 MB
[runlim] sample:		3674.7 time, 550.1 real, 3296.8 MB
[runlim] sample:		3740.6 time, 560.1 real, 3297.3 MB
[runlim] sample:		3813.3 time, 570.1 real, 3297.3 MB
[runlim] sample:		3881.7 time, 580.1 real, 3297.5 MB
[runlim] sample:		3952.0 time, 590.1 real, 3297.5 MB
[runlim] sample:		4023.8 time, 600.1 real, 3297.7 MB
[runlim] end:			Tue Jan 20 17:15:51 2026
[runlim] status:		out of time
[runlim] result:		2
[runlim] children:		5966
[runlim] real:			600.15 seconds
[runlim] time:			4023.78 seconds
[runlim] space:			3339.1 MB
[runlim] samples:		6000
